; benchmark generated from python API
(set-info :status unknown)
(declare-fun x_months () Int)
(declare-fun x_beta () Int)
(declare-fun y_months () Int)
(declare-fun y_beta () Int)
(assert
 (<= (- 1200) x_months))
(assert
 (>= 1199 x_months))
(assert
 (>= x_beta 0))
(assert
 (let ((?x1948 (+ x_months 24003)))
 (let ((?x3410 (- ?x1948 (* (div (- ?x1948 1) 12) 12))))
 (let ((?x2605 (ite (or (= ?x3410 4) (= ?x3410 6) (= ?x3410 9) (= ?x3410 11)) 30 31)))
 (let (($x4163 (and (= (mod (div (- ?x1948 1) 12) 4) 0) (and (distinct (mod (div (- ?x1948 1) 12) 100) 0) true))))
 (let ((?x1150 (ite (or $x4163 (= (mod (div (- ?x1948 1) 12) 400) 0)) 29 28)))
 (< x_beta (ite (= ?x3410 2) ?x1150 ?x2605))))))))
(assert
 (<= (- 1200) y_months))
(assert
 (>= 1199 y_months))
(assert
 (>= y_beta 0))
(assert
 (let ((?x3407 (+ y_months 24003)))
 (let ((?x2358 (- ?x3407 (* (div (- ?x3407 1) 12) 12))))
 (let ((?x4041 (ite (or (= ?x2358 4) (= ?x2358 6) (= ?x2358 9) (= ?x2358 11)) 30 31)))
 (let (($x3378 (and (= (mod (div (- ?x3407 1) 12) 4) 0) (and (distinct (mod (div (- ?x3407 1) 12) 100) 0) true))))
 (let ((?x741 (ite (or $x3378 (= (mod (div (- ?x3407 1) 12) 400) 0)) 29 28)))
 (< y_beta (ite (= ?x2358 2) ?x741 ?x4041))))))))
(assert
 (and (= x_months (- (+ (* 2020 12) 1) 24003)) (= 30 x_beta)))
(assert
 (and (= y_months (- (+ (* 2019 12) 1) 24003)) (= 30 y_beta)))
(assert
 (let ((?x3447 (+ x_beta 1)))
 (let ((?x2437 (+ (+ x_months 1) 24003)))
 (let ((?x1141 (- ?x2437 (* (div (- ?x2437 1) 12) 12))))
 (let ((?x4303 (ite (or (= ?x1141 4) (= ?x1141 6) (= ?x1141 9) (= ?x1141 11)) 30 31)))
 (let (($x2128 (and (= (mod (div (- ?x2437 1) 12) 4) 0) (and (distinct (mod (div (- ?x2437 1) 12) 100) 0) true))))
 (let (($x4598 (or $x2128 (= (mod (div (- ?x2437 1) 12) 400) 0))))
 (let ((?x4413 (ite (= ?x1141 2) (ite $x4598 29 28) ?x4303)))
 (let ((?x748 (ite (> 1 ?x3447) 1 (ite (> ?x3447 ?x4413) ?x4413 ?x3447))))
 (let ((?x2875 (ite (> 1 ?x748) 1 (ite (> ?x748 ?x4413) ?x4413 ?x748))))
 (let ((?x4237 (ite (= 2 ?x1141) (ite $x4598 31 31) (ite (= 1 ?x1141) (ite $x4598 0 0) 0))))
 (let ((?x2167 (ite (= 4 ?x1141) (ite $x4598 91 90) (ite (= 3 ?x1141) (ite $x4598 60 59) ?x4237))))
 (let ((?x3721 (ite (= 6 ?x1141) (ite $x4598 152 151) (ite (= 5 ?x1141) (ite $x4598 121 120) ?x2167))))
 (let ((?x3128 (ite (= 8 ?x1141) (ite $x4598 213 212) (ite (= 7 ?x1141) (ite $x4598 182 181) ?x3721))))
 (let ((?x1973 (ite (= 10 ?x1141) (ite $x4598 274 273) (ite (= 9 ?x1141) (ite $x4598 244 243) ?x3128))))
 (let ((?x1633 (ite (= 12 ?x1141) (ite $x4598 335 334) (ite (= 11 ?x1141) (ite $x4598 305 304) ?x1973))))
 (let ((?x4588 (+ (* 365 (- (div (- ?x2437 1) 12) 1)) (div (- (div (- ?x2437 1) 12) 1) 4))))
 (let ((?x1264 (+ (- ?x4588 (div (- (div (- ?x2437 1) 12) 1) 100)) (div (- (div (- ?x2437 1) 12) 1) 400))))
 (let ((?x2885 (+ (+ (- (+ (+ ?x1264 ?x1633) (- ?x2875 1)) 730179) 0) 730179)))
 (let ((?x4284 (mod ?x2885 146097)))
 (let ((?x2787 (div ?x4284 36524)))
 (let ((?x1488 (ite (<= 4 ?x2787) 3 ?x2787)))
 (let ((?x4539 (- ?x4284 (* ?x1488 36524))))
 (let ((?x3647 (mod ?x4539 1461)))
 (let ((?x3866 (div ?x3647 365)))
 (let ((?x2660 (ite (<= 4 ?x3866) 3 ?x3866)))
 (let ((?x2350 (+ (+ (* (div ?x2885 146097) 400) (* ?x1488 100)) (* (div ?x4539 1461) 4))))
 (let ((?x1280 (+ (+ ?x2350 ?x2660) 1)))
 (let (($x3851 (or (and (= (mod ?x1280 4) 0) (and (distinct (mod ?x1280 100) 0) true)) (= (mod ?x1280 400) 0))))
 (let ((?x4173 (- ?x3647 (* ?x2660 365))))
 (let ((?x1259 (ite $x3851 31 31)))
 (let (($x3898 (>= ?x4173 ?x1259)))
 (let ((?x4379 (ite $x3898 (+ (- ?x4173 ?x1259) 1) (+ (- ?x4173 (ite $x3851 0 0)) 1))))
 (let ((?x4401 (ite $x3851 60 59)))
 (let (($x2673 (>= ?x4173 ?x4401)))
 (let ((?x507 (ite $x3851 91 90)))
 (let (($x2720 (>= ?x4173 ?x507)))
 (let ((?x3425 (ite $x2720 (+ (- ?x4173 ?x507) 1) (ite $x2673 (+ (- ?x4173 ?x4401) 1) ?x4379))))
 (let ((?x2049 (ite $x3851 121 120)))
 (let (($x1169 (>= ?x4173 ?x2049)))
 (let ((?x614 (ite $x3851 152 151)))
 (let (($x1822 (>= ?x4173 ?x614)))
 (let ((?x1910 (ite $x1822 (+ (- ?x4173 ?x614) 1) (ite $x1169 (+ (- ?x4173 ?x2049) 1) ?x3425))))
 (let ((?x4366 (ite $x3851 182 181)))
 (let (($x1920 (>= ?x4173 ?x4366)))
 (let ((?x3268 (ite $x3851 213 212)))
 (let (($x446 (>= ?x4173 ?x3268)))
 (let ((?x1180 (ite $x446 (+ (- ?x4173 ?x3268) 1) (ite $x1920 (+ (- ?x4173 ?x4366) 1) ?x1910))))
 (let ((?x1070 (ite $x3851 244 243)))
 (let (($x1634 (>= ?x4173 ?x1070)))
 (let ((?x4012 (ite $x3851 274 273)))
 (let (($x4581 (>= ?x4173 ?x4012)))
 (let ((?x3930 (ite $x4581 (+ (- ?x4173 ?x4012) 1) (ite $x1634 (+ (- ?x4173 ?x1070) 1) ?x1180))))
 (let ((?x3837 (ite $x3851 305 304)))
 (let (($x2166 (>= ?x4173 ?x3837)))
 (let ((?x2114 (ite $x3851 335 334)))
 (let (($x612 (>= ?x4173 ?x2114)))
 (let ((?x887 (ite $x612 (+ (- ?x4173 ?x2114) 1) (ite $x2166 (+ (- ?x4173 ?x3837) 1) ?x3930))))
 (let (($x750 (= 0 0)))
 (let ((?x1138 (ite $x1169 5 (ite $x2720 4 (ite $x2673 3 (ite $x3898 2 1))))))
 (let ((?x4531 (ite $x1634 9 (ite $x446 8 (ite $x1920 7 (ite $x1822 6 ?x1138))))))
 (let ((?x4593 (+ (* (ite $x750 (div (- ?x2437 1) 12) ?x1280) 12) (ite $x750 ?x1141 (ite $x612 12 (ite $x2166 11 (ite $x4581 10 ?x4531)))))))
 (and (= (- ?x4593 24003) (- (+ (* 2020 12) 2) 24003)) (= 28 (- (ite $x750 ?x2875 ?x887) 1)))))))))))))))))))))))))))))))))))))))))))))))))))))))))))))))))
(assert
 (let ((?x1314 (+ y_beta 1)))
(let ((?x1195 (+ (+ y_months 1) 24003)))
(let ((?x3478 (- ?x1195 (* (div (- ?x1195 1) 12) 12))))
(let ((?x1266 (ite (or (= ?x3478 4) (= ?x3478 6) (= ?x3478 9) (= ?x3478 11)) 30 31)))
(let (($x2229 (and (= (mod (div (- ?x1195 1) 12) 4) 0) (and (distinct (mod (div (- ?x1195 1) 12) 100) 0) true))))
(let (($x3499 (or $x2229 (= (mod (div (- ?x1195 1) 12) 400) 0))))
(let ((?x3020 (ite (= ?x3478 2) (ite $x3499 29 28) ?x1266)))
(let ((?x2985 (ite (> 1 ?x1314) 1 (ite (> ?x1314 ?x3020) ?x3020 ?x1314))))
(let ((?x2604 (ite (> 1 ?x2985) 1 (ite (> ?x2985 ?x3020) ?x3020 ?x2985))))
(let ((?x2139 (ite (= 2 ?x3478) (ite $x3499 31 31) (ite (= 1 ?x3478) (ite $x3499 0 0) 0))))
(let ((?x2395 (ite (= 4 ?x3478) (ite $x3499 91 90) (ite (= 3 ?x3478) (ite $x3499 60 59) ?x2139))))
(let ((?x4490 (ite (= 6 ?x3478) (ite $x3499 152 151) (ite (= 5 ?x3478) (ite $x3499 121 120) ?x2395))))
(let ((?x2346 (ite (= 8 ?x3478) (ite $x3499 213 212) (ite (= 7 ?x3478) (ite $x3499 182 181) ?x4490))))
(let ((?x534 (ite (= 10 ?x3478) (ite $x3499 274 273) (ite (= 9 ?x3478) (ite $x3499 244 243) ?x2346))))
(let ((?x3107 (ite (= 12 ?x3478) (ite $x3499 335 334) (ite (= 11 ?x3478) (ite $x3499 305 304) ?x534))))
(let ((?x3974 (+ (* 365 (- (div (- ?x1195 1) 12) 1)) (div (- (div (- ?x1195 1) 12) 1) 4))))
(let ((?x1735 (+ (- ?x3974 (div (- (div (- ?x1195 1) 12) 1) 100)) (div (- (div (- ?x1195 1) 12) 1) 400))))
(let ((?x3878 (+ (+ (- (+ (+ ?x1735 ?x3107) (- ?x2604 1)) 730179) 0) 730179)))
(let ((?x4157 (mod ?x3878 146097)))
(let ((?x2245 (div ?x4157 36524)))
(let ((?x3290 (ite (<= 4 ?x2245) 3 ?x2245)))
(let ((?x1255 (- ?x4157 (* ?x3290 36524))))
(let ((?x2196 (mod ?x1255 1461)))
(let ((?x2423 (div ?x2196 365)))
(let ((?x3520 (ite (<= 4 ?x2423) 3 ?x2423)))
(let ((?x1806 (+ (+ (* (div ?x3878 146097) 400) (* ?x3290 100)) (* (div ?x1255 1461) 4))))
(let ((?x3762 (+ (+ ?x1806 ?x3520) 1)))
(let (($x2074 (or (and (= (mod ?x3762 4) 0) (and (distinct (mod ?x3762 100) 0) true)) (= (mod ?x3762 400) 0))))
(let ((?x1537 (- ?x2196 (* ?x3520 365))))
(let ((?x4438 (ite $x2074 31 31)))
(let (($x4082 (>= ?x1537 ?x4438)))
(let ((?x1367 (ite $x4082 (+ (- ?x1537 ?x4438) 1) (+ (- ?x1537 (ite $x2074 0 0)) 1))))
(let ((?x1962 (ite $x2074 60 59)))
(let (($x1111 (>= ?x1537 ?x1962)))
(let ((?x4431 (ite $x2074 91 90)))
(let (($x3040 (>= ?x1537 ?x4431)))
(let ((?x2029 (ite $x3040 (+ (- ?x1537 ?x4431) 1) (ite $x1111 (+ (- ?x1537 ?x1962) 1) ?x1367))))
(let ((?x2934 (ite $x2074 121 120)))
(let (($x1363 (>= ?x1537 ?x2934)))
(let ((?x2182 (ite $x2074 152 151)))
(let (($x2570 (>= ?x1537 ?x2182)))
(let ((?x3999 (ite $x2570 (+ (- ?x1537 ?x2182) 1) (ite $x1363 (+ (- ?x1537 ?x2934) 1) ?x2029))))
(let ((?x3376 (ite $x2074 182 181)))
(let (($x1239 (>= ?x1537 ?x3376)))
(let ((?x988 (ite $x2074 213 212)))
(let (($x1664 (>= ?x1537 ?x988)))
(let ((?x2882 (ite $x1664 (+ (- ?x1537 ?x988) 1) (ite $x1239 (+ (- ?x1537 ?x3376) 1) ?x3999))))
(let ((?x1723 (ite $x2074 244 243)))
(let (($x2181 (>= ?x1537 ?x1723)))
(let ((?x1210 (ite $x2074 274 273)))
(let (($x2006 (>= ?x1537 ?x1210)))
(let ((?x2841 (ite $x2006 (+ (- ?x1537 ?x1210) 1) (ite $x2181 (+ (- ?x1537 ?x1723) 1) ?x2882))))
(let ((?x2217 (ite $x2074 305 304)))
(let (($x2739 (>= ?x1537 ?x2217)))
(let ((?x3044 (ite $x2074 335 334)))
(let (($x2973 (>= ?x1537 ?x3044)))
(let ((?x3329 (ite $x2973 (+ (- ?x1537 ?x3044) 1) (ite $x2739 (+ (- ?x1537 ?x2217) 1) ?x2841))))
(let (($x750 (= 0 0)))
(let ((?x4527 (ite $x1363 5 (ite $x3040 4 (ite $x1111 3 (ite $x4082 2 1))))))
(let ((?x3697 (ite $x2181 9 (ite $x1664 8 (ite $x1239 7 (ite $x2570 6 ?x4527))))))
(let ((?x788 (+ (* (ite $x750 (div (- ?x1195 1) 12) ?x3762) 12) (ite $x750 ?x3478 (ite $x2973 12 (ite $x2739 11 (ite $x2006 10 ?x3697)))))))
(and (= (- ?x788 24003) (- (+ (* 2019 12) 2) 24003)) (= 27 (- (ite $x750 ?x2604 ?x3329) 1)))))))))))))))))))))))))))))))))))))))))))))))))))))))))))))))))
(check-sat)
